nNurses = 173;
hours = 65;
demand = [19 34 26 26 10 24 30 5 25 26 24 30 40 41 40 36 6 31 31 22 19 16 16 17 8 35 25 42 22 41 41 4 22 27 39 18 33 10 15 17 25 11 7 1 7 37 36 13 19 17 24 10 1 24 41 35 26 5 18 21 42 26 30 20 32];
minHours = 1;
maxHours = 21;
maxConsec = 13;
maxPresence = 35;